<?xml version = "1.0" encoding="UTF-8" standalone="yes"?>
<CPLEXSolution version="1.2">
 <header
   problemName="IloCplex"
   solutionName="p0"
   solutionIndex="-1"
   objectiveValue="0"
   solutionTypeValue="3"
   solutionTypeString="primal"
   solutionStatusValue="127"
   solutionStatusString="integer feasible solution"
   solutionMethodString="mip"
   primalFeasible="0"
   dualFeasible="0"
   writeLevel="3"/>
 <quality
   epInt="1.0000000000000001e-05"
   epRHS="9.9999999999999995e-07"
   maxIntInfeas="0"
   maxPrimalInfeas="0"
   maxX="670"
   maxSlack="570"/>
 <variables>
  <variable index="88" value="1"/>
  <variable index="116" value="1"/>
  <variable index="309" value="1"/>
  <variable index="332" value="1"/>
  <variable index="458" value="1"/>
  <variable index="585" value="1"/>
  <variable index="655" value="1"/>
  <variable index="722" value="1"/>
  <variable index="850" value="1"/>
  <variable index="948" value="1"/>
  <variable index="1046" value="1"/>
  <variable index="1190" value="1"/>
  <variable index="1217" value="1"/>
  <variable index="1339" value="1"/>
  <variable index="1464" value="1"/>
  <variable index="1591" value="1"/>
  <variable index="1674" value="1"/>
  <variable index="1800" value="1"/>
  <variable index="1815" value="1"/>
  <variable index="1977" value="1"/>
  <variable index="2099" value="1"/>
  <variable index="2162" value="1"/>
  <variable index="2272" value="1"/>
  <variable index="2397" value="1"/>
  <variable index="2463" value="1"/>
  <variable index="2556" value="1"/>
  <variable index="2659" value="1"/>
  <variable index="2742" value="1"/>
  <variable index="2841" value="1"/>
  <variable index="2920" value="1"/>
  <variable index="3095" value="1"/>
  <variable index="3205" value="1"/>
  <variable index="3308" value="1"/>
  <variable index="3384" value="1"/>
  <variable index="3465" value="1"/>
  <variable index="3554" value="1"/>
  <variable index="3703" value="1"/>
  <variable index="3780" value="1"/>
  <variable index="3824" value="1"/>
  <variable index="3935" value="1"/>
  <variable index="4018" value="1"/>
  <variable index="4157" value="1"/>
  <variable index="4269" value="1"/>
  <variable index="4312" value="1"/>
  <variable index="4445" value="1"/>
  <variable index="4528" value="1"/>
  <variable index="4660" value="1"/>
  <variable index="4751" value="1"/>
  <variable index="4823" value="1"/>
  <variable index="4978" value="1"/>
  <variable index="5053" value="1"/>
  <variable index="5113" value="1"/>
  <variable index="5271" value="1"/>
  <variable index="5311" value="1"/>
  <variable index="5447" value="1"/>
  <variable index="5568" value="1"/>
  <variable index="5638" value="1"/>
  <variable index="5779" value="1"/>
  <variable index="5829" value="1"/>
  <variable index="5952" value="1"/>
  <variable index="6044" value="1"/>
  <variable index="6110" value="1"/>
  <variable index="6307" value="1"/>
  <variable index="6376" value="1"/>
  <variable index="6506" value="1"/>
  <variable index="6566" value="1"/>
  <variable index="6696" value="1"/>
  <variable index="6775" value="1"/>
  <variable index="6831" value="1"/>
  <variable index="6967" value="1"/>
  <variable index="7030" value="1"/>
  <variable index="7137" value="1"/>
  <variable index="7270" value="1"/>
  <variable index="7361" value="1"/>
  <variable index="7443" value="1"/>
  <variable index="7533" value="1"/>
  <variable index="7694" value="1"/>
  <variable index="7798" value="1"/>
  <variable index="7825" value="1"/>
  <variable index="8001" value="1"/>
  <variable index="8049" value="1"/>
  <variable index="8127" value="1"/>
  <variable index="8293" value="1"/>
  <variable index="8321" value="1"/>
  <variable index="8414" value="1"/>
  <variable index="8540" value="1"/>
  <variable index="8681" value="1"/>
  <variable index="8783" value="1"/>
  <variable index="8887" value="1"/>
  <variable index="8926" value="1"/>
  <variable index="9019" value="1"/>
  <variable index="9189" value="1"/>
  <variable index="9304" value="1"/>
  <variable index="9334" value="1"/>
  <variable index="9502" value="1"/>
  <variable index="9592" value="1"/>
  <variable index="9673" value="1"/>
  <variable index="9736" value="1"/>
  <variable index="9882" value="1"/>
  <variable index="9986" value="1"/>
  <variable index="10020" value="670"/>
 </variables>
</CPLEXSolution>
